NAME = SAfile175,
TOURSIZE = 175,
LENGTH = 21445,
119,46,89,148,49,118,72,26,5,39,120,19,93,69,31,114,48,92,170,53,64,159,105,50,103,167,123,102,144,80,32,172,81,71,91,112,104,151,84,85,134,41,21,36,132,99,140,153,149,70,24,173,11,59,128,66,10,77,122,18,33,165,164,126,22,12,121,143,130,34,78,162,174,4,109,20,43,115,138,52,96,145,63,95,54,141,152,88,56,30,3,142,60,175,124,86,76,111,90,158,94,135,106,107,51,55,129,125,8,155,57,14,150,147,169,28,168,23,65,100,160,58,42,6,146,16,35,163,117,67,98,156,79,61,40,27,1,131,101,73,13,127,75,108,44,157,82,97,136,161,47,37,38,113,74,7,87,154,166,68,29,133,116,45,9,15,25,62,83,2,137,17,110,139,171